101
0 98 48 57 26 17 54 68 4 31 
84 27 77 15 89 21 96 47 67 49 
45 86 73 36 87 34 80 94 59 65 
3 63 52 74 20 56 13 10 12 62 
29 7 60 38 2 41 30 32 9 8 
95 22 75 81 88 91 5 19 97 24 
71 79 55 58 99 66 72 85 69 23 
18 82 37 46 50 44 35 78 16 1 
43 11 28 90 76 53 51 14 83 6 
40 33 61 25 64 42 39 70 93 92 
100 
